# Solution for model problem
# Objective value = 2
CLIENT_PE4_0 1
CLIENT_PE4_2 1
CLIENT_PE0_0 0
CLIENT_PE2_0 0
CLIENT_PE3_0 0
CLIENT_PE6_0 0
CLIENT_PE7_0 0
CLIENT_PE13_0 0
CLIENT_PE14_0 0
CLIENT_PE0_2 0
CLIENT_PE2_2 0
CLIENT_PE3_2 0
CLIENT_PE6_2 0
CLIENT_PE7_2 0
CLIENT_PE13_2 0
CLIENT_PE14_2 0
